Route #1: 0 70 22 51 54 46 0
Route #2: 0 40 48 8 81 59 5 41 0
Route #3: 0 17 86 2 52 23 87 61 11 57 80 0
Route #4: 0 7 36 83 0
Route #5: 0 76 69 19 65 47 0
Route #6: 0 43 64 31 16 99 24 94 0
Route #7: 0 68 93 67 28 53 0
Route #8: 0 29 75 32 10 72 1 0
Route #9: 0 30 45 34 18 21 0
Route #10: 0 63 73 6 84 0
Route #11: 0 4 26 91 35 9 56 14 0
Route #12: 0 15 33 98 37 89 82 0
Route #13: 0 96 27 66 62 13 0
Route #14: 0 60 97 78 44 95 74 55 0
Route #15: 0 25 3 79 90 0
Route #16: 0 42 92 88 49 58 50 71 77 0
Route #17: 0 38 39 20 12 85 0
